p edge 75 1388
e 1 3
e 1 4
e 1 5
e 1 9
e 1 11
e 1 13
e 1 14
e 1 15
e 1 17
e 1 19
e 1 20
e 1 24
e 1 25
e 1 26
e 1 33
e 1 35
e 1 39
e 1 40
e 1 41
e 1 43
e 1 44
e 1 45
e 1 46
e 1 47
e 1 48
e 1 49
e 1 50
e 1 51
e 1 54
e 1 57
e 1 60
e 1 63
e 1 64
e 1 68
e 1 69
e 1 71
e 1 74
e 1 75
e 2 3
e 2 5
e 2 9
e 2 11
e 2 13
e 2 14
e 2 16
e 2 21
e 2 22
e 2 23
e 2 25
e 2 28
e 2 29
e 2 30
e 2 32
e 2 34
e 2 36
e 2 37
e 2 42
e 2 51
e 2 52
e 2 54
e 2 56
e 2 58
e 2 61
e 2 62
e 2 63
e 2 65
e 2 66
e 2 68
e 2 72
e 2 73
e 3 4
e 3 5
e 3 6
e 3 7
e 3 8
e 3 11
e 3 13
e 3 14
e 3 15
e 3 16
e 3 18
e 3 19
e 3 22
e 3 23
e 3 24
e 3 25
e 3 27
e 3 32
e 3 33
e 3 35
e 3 37
e 3 38
e 3 39
e 3 41
e 3 43
e 3 44
e 3 47
e 3 48
e 3 50
e 3 52
e 3 53
e 3 54
e 3 55
e 3 57
e 3 61
e 3 62
e 3 64
e 3 68
e 3 73
e 3 75
e 4 5
e 4 6
e 4 8
e 4 9
e 4 10
e 4 15
e 4 17
e 4 19
e 4 21
e 4 22
e 4 23
e 4 27
e 4 29
e 4 30
e 4 31
e 4 34
e 4 36
e 4 39
e 4 42
e 4 43
e 4 48
e 4 51
e 4 52
e 4 54
e 4 55
e 4 57
e 4 58
e 4 59
e 4 62
e 4 64
e 4 65
e 4 69
e 4 71
e 4 72
e 5 6
e 5 8
e 5 10
e 5 11
e 5 12
e 5 16
e 5 21
e 5 22
e 5 23
e 5 26
e 5 27
e 5 32
e 5 33
e 5 34
e 5 35
e 5 36
e 5 39
e 5 40
e 5 42
e 5 44
e 5 45
e 5 48
e 5 53
e 5 54
e 5 57
e 5 61
e 5 62
e 5 63
e 5 64
e 5 65
e 5 68
e 5 69
e 5 71
e 5 74
e 5 75
e 6 7
e 6 8
e 6 10
e 6 14
e 6 15
e 6 16
e 6 21
e 6 23
e 6 24
e 6 25
e 6 29
e 6 30
e 6 34
e 6 38
e 6 39
e 6 40
e 6 44
e 6 47
e 6 48
e 6 49
e 6 50
e 6 52
e 6 53
e 6 54
e 6 58
e 6 59
e 6 60
e 6 62
e 6 66
e 6 69
e 6 72
e 6 73
e 7 8
e 7 10
e 7 11
e 7 12
e 7 13
e 7 15
e 7 16
e 7 19
e 7 22
e 7 23
e 7 24
e 7 28
e 7 29
e 7 31
e 7 33
e 7 34
e 7 35
e 7 37
e 7 41
e 7 42
e 7 45
e 7 51
e 7 53
e 7 54
e 7 56
e 7 58
e 7 59
e 7 64
e 7 69
e 7 70
e 7 72
e 7 75
e 8 9
e 8 10
e 8 13
e 8 16
e 8 17
e 8 18
e 8 21
e 8 22
e 8 23
e 8 24
e 8 26
e 8 33
e 8 34
e 8 35
e 8 36
e 8 37
e 8 39
e 8 40
e 8 41
e 8 45
e 8 46
e 8 47
e 8 49
e 8 53
e 8 55
e 8 56
e 8 57
e 8 58
e 8 59
e 8 60
e 8 61
e 8 64
e 8 65
e 8 67
e 8 68
e 8 70
e 8 73
e 8 74
e 9 12
e 9 15
e 9 19
e 9 22
e 9 24
e 9 25
e 9 26
e 9 30
e 9 32
e 9 33
e 9 36
e 9 43
e 9 44
e 9 47
e 9 52
e 9 54
e 9 56
e 9 57
e 9 58
e 9 59
e 9 62
e 9 66
e 9 68
e 9 72
e 9 74
e 9 75
e 10 11
e 10 13
e 10 14
e 10 15
e 10 19
e 10 20
e 10 21
e 10 22
e 10 23
e 10 24
e 10 25
e 10 28
e 10 32
e 10 33
e 10 34
e 10 40
e 10 48
e 10 49
e 10 51
e 10 53
e 10 54
e 10 55
e 10 57
e 10 58
e 10 59
e 10 60
e 10 61
e 10 66
e 10 67
e 10 68
e 10 69
e 10 70
e 10 71
e 10 72
e 10 73
e 10 75
e 11 12
e 11 14
e 11 15
e 11 16
e 11 19
e 11 21
e 11 22
e 11 23
e 11 24
e 11 25
e 11 29
e 11 30
e 11 32
e 11 33
e 11 34
e 11 43
e 11 44
e 11 45
e 11 46
e 11 47
e 11 48
e 11 50
e 11 52
e 11 53
e 11 54
e 11 55
e 11 56
e 11 58
e 11 59
e 11 60
e 11 61
e 11 66
e 11 67
e 11 71
e 11 72
e 11 74
e 12 15
e 12 17
e 12 18
e 12 19
e 12 20
e 12 24
e 12 26
e 12 27
e 12 32
e 12 33
e 12 35
e 12 36
e 12 39
e 12 42
e 12 43
e 12 44
e 12 46
e 12 49
e 12 50
e 12 51
e 12 52
e 12 53
e 12 55
e 12 56
e 12 57
e 12 59
e 12 60
e 12 61
e 12 62
e 12 64
e 12 65
e 12 68
e 12 70
e 12 75
e 13 16
e 13 17
e 13 18
e 13 19
e 13 21
e 13 26
e 13 27
e 13 28
e 13 29
e 13 30
e 13 33
e 13 34
e 13 37
e 13 38
e 13 41
e 13 44
e 13 45
e 13 47
e 13 48
e 13 49
e 13 50
e 13 52
e 13 57
e 13 58
e 13 60
e 13 61
e 13 63
e 13 64
e 13 65
e 13 68
e 13 69
e 13 72
e 13 75
e 14 15
e 14 26
e 14 27
e 14 29
e 14 33
e 14 36
e 14 37
e 14 42
e 14 43
e 14 44
e 14 46
e 14 47
e 14 50
e 14 51
e 14 52
e 14 54
e 14 55
e 14 56
e 14 57
e 14 58
e 14 60
e 14 62
e 14 63
e 14 64
e 14 65
e 14 69
e 14 70
e 14 72
e 14 74
e 14 75
e 15 16
e 15 17
e 15 21
e 15 23
e 15 24
e 15 28
e 15 29
e 15 32
e 15 34
e 15 36
e 15 38
e 15 40
e 15 42
e 15 43
e 15 44
e 15 45
e 15 48
e 15 50
e 15 52
e 15 57
e 15 58
e 15 60
e 15 65
e 15 66
e 15 71
e 15 73
e 16 17
e 16 21
e 16 22
e 16 24
e 16 26
e 16 27
e 16 28
e 16 29
e 16 30
e 16 31
e 16 33
e 16 36
e 16 38
e 16 40
e 16 41
e 16 42
e 16 45
e 16 46
e 16 50
e 16 55
e 16 56
e 16 60
e 16 61
e 16 62
e 16 63
e 16 64
e 16 66
e 16 68
e 16 69
e 16 74
e 16 75
e 17 18
e 17 20
e 17 22
e 17 24
e 17 27
e 17 30
e 17 33
e 17 35
e 17 36
e 17 40
e 17 41
e 17 42
e 17 43
e 17 44
e 17 45
e 17 46
e 17 48
e 17 49
e 17 50
e 17 51
e 17 52
e 17 53
e 17 55
e 17 58
e 17 59
e 17 60
e 17 61
e 17 64
e 17 66
e 17 67
e 17 68
e 17 69
e 17 70
e 17 72
e 17 73
e 18 20
e 18 21
e 18 22
e 18 23
e 18 25
e 18 30
e 18 31
e 18 32
e 18 33
e 18 36
e 18 37
e 18 38
e 18 39
e 18 40
e 18 43
e 18 45
e 18 46
e 18 49
e 18 50
e 18 51
e 18 52
e 18 55
e 18 56
e 18 57
e 18 60
e 18 62
e 18 63
e 18 65
e 18 66
e 18 67
e 18 69
e 18 70
e 18 71
e 18 73
e 18 74
e 19 23
e 19 24
e 19 25
e 19 31
e 19 35
e 19 36
e 19 42
e 19 43
e 19 44
e 19 46
e 19 48
e 19 51
e 19 52
e 19 57
e 19 58
e 19 59
e 19 61
e 19 66
e 19 69
e 19 71
e 19 72
e 19 73
e 19 74
e 19 75
e 20 21
e 20 22
e 20 23
e 20 25
e 20 26
e 20 27
e 20 34
e 20 36
e 20 37
e 20 38
e 20 40
e 20 41
e 20 44
e 20 45
e 20 46
e 20 48
e 20 49
e 20 51
e 20 54
e 20 57
e 20 59
e 20 60
e 20 61
e 20 62
e 20 64
e 20 65
e 20 70
e 20 71
e 20 74
e 21 24
e 21 27
e 21 28
e 21 31
e 21 32
e 21 35
e 21 37
e 21 38
e 21 40
e 21 41
e 21 43
e 21 47
e 21 48
e 21 49
e 21 51
e 21 52
e 21 53
e 21 54
e 21 58
e 21 60
e 21 61
e 21 63
e 21 64
e 21 66
e 21 68
e 21 73
e 21 74
e 22 23
e 22 26
e 22 28
e 22 29
e 22 30
e 22 31
e 22 34
e 22 35
e 22 43
e 22 44
e 22 45
e 22 47
e 22 51
e 22 53
e 22 54
e 22 56
e 22 57
e 22 58
e 22 59
e 22 61
e 22 62
e 22 63
e 22 64
e 22 65
e 22 67
e 22 68
e 22 69
e 22 70
e 22 71
e 22 74
e 23 24
e 23 26
e 23 27
e 23 28
e 23 30
e 23 31
e 23 32
e 23 36
e 23 37
e 23 39
e 23 40
e 23 43
e 23 46
e 23 48
e 23 49
e 23 51
e 23 52
e 23 54
e 23 59
e 23 61
e 23 62
e 23 64
e 23 65
e 23 66
e 23 69
e 23 71
e 23 72
e 23 74
e 24 25
e 24 26
e 24 28
e 24 35
e 24 36
e 24 37
e 24 39
e 24 40
e 24 42
e 24 43
e 24 44
e 24 46
e 24 48
e 24 50
e 24 51
e 24 52
e 24 56
e 24 58
e 24 59
e 24 61
e 24 62
e 24 65
e 24 67
e 24 68
e 24 70
e 24 72
e 24 74
e 25 27
e 25 33
e 25 34
e 25 37
e 25 43
e 25 48
e 25 49
e 25 51
e 25 53
e 25 54
e 25 60
e 25 64
e 25 65
e 25 69
e 25 70
e 25 71
e 25 73
e 25 75
e 26 27
e 26 29
e 26 30
e 26 31
e 26 35
e 26 37
e 26 39
e 26 41
e 26 43
e 26 45
e 26 46
e 26 47
e 26 48
e 26 50
e 26 51
e 26 52
e 26 56
e 26 58
e 26 59
e 26 60
e 26 63
e 26 64
e 26 65
e 26 66
e 26 69
e 27 29
e 27 30
e 27 31
e 27 33
e 27 35
e 27 37
e 27 38
e 27 39
e 27 40
e 27 41
e 27 44
e 27 45
e 27 48
e 27 49
e 27 50
e 27 53
e 27 56
e 27 59
e 27 60
e 27 62
e 27 63
e 27 64
e 27 66
e 27 69
e 27 72
e 27 74
e 27 75
e 28 34
e 28 35
e 28 36
e 28 42
e 28 43
e 28 44
e 28 46
e 28 51
e 28 54
e 28 62
e 28 64
e 28 66
e 28 69
e 28 70
e 28 71
e 28 73
e 28 74
e 28 75
e 29 30
e 29 31
e 29 35
e 29 36
e 29 37
e 29 39
e 29 40
e 29 42
e 29 43
e 29 44
e 29 46
e 29 48
e 29 51
e 29 52
e 29 53
e 29 54
e 29 56
e 29 58
e 29 59
e 29 60
e 29 61
e 29 63
e 29 64
e 29 68
e 29 70
e 29 75
e 30 31
e 30 34
e 30 35
e 30 38
e 30 39
e 30 41
e 30 43
e 30 46
e 30 50
e 30 51
e 30 52
e 30 54
e 30 56
e 30 59
e 30 61
e 30 64
e 30 66
e 30 71
e 30 72
e 30 74
e 30 75
e 31 34
e 31 36
e 31 39
e 31 40
e 31 43
e 31 44
e 31 46
e 31 47
e 31 48
e 31 50
e 31 53
e 31 56
e 31 57
e 31 64
e 31 66
e 31 69
e 31 73
e 31 74
e 31 75
e 32 33
e 32 35
e 32 37
e 32 40
e 32 41
e 32 44
e 32 46
e 32 49
e 32 51
e 32 54
e 32 56
e 32 57
e 32 58
e 32 59
e 32 60
e 32 63
e 32 64
e 32 65
e 32 68
e 32 69
e 32 71
e 33 34
e 33 35
e 33 36
e 33 37
e 33 38
e 33 39
e 33 41
e 33 46
e 33 47
e 33 51
e 33 56
e 33 59
e 33 60
e 33 61
e 33 63
e 33 67
e 33 68
e 33 69
e 33 70
e 33 75
e 34 38
e 34 39
e 34 40
e 34 41
e 34 42
e 34 43
e 34 48
e 34 51
e 34 52
e 34 55
e 34 56
e 34 57
e 34 61
e 34 62
e 34 67
e 34 68
e 34 69
e 34 71
e 34 73
e 35 37
e 35 41
e 35 45
e 35 46
e 35 48
e 35 49
e 35 52
e 35 57
e 35 60
e 35 61
e 35 63
e 35 64
e 35 66
e 35 68
e 35 70
e 35 71
e 35 72
e 35 73
e 35 74
e 36 37
e 36 43
e 36 44
e 36 45
e 36 46
e 36 47
e 36 49
e 36 50
e 36 51
e 36 52
e 36 53
e 36 54
e 36 55
e 36 57
e 36 60
e 36 66
e 36 67
e 36 68
e 36 69
e 36 71
e 37 38
e 37 41
e 37 42
e 37 45
e 37 46
e 37 49
e 37 54
e 37 58
e 37 59
e 37 62
e 37 64
e 37 65
e 37 66
e 37 67
e 37 68
e 37 70
e 37 74
e 38 42
e 38 43
e 38 47
e 38 48
e 38 49
e 38 52
e 38 53
e 38 55
e 38 56
e 38 58
e 38 62
e 38 64
e 38 65
e 38 69
e 38 73
e 39 41
e 39 42
e 39 44
e 39 45
e 39 46
e 39 47
e 39 48
e 39 50
e 39 51
e 39 53
e 39 54
e 39 56
e 39 60
e 39 62
e 39 63
e 39 67
e 39 68
e 39 70
e 39 71
e 39 73
e 39 75
e 40 41
e 40 42
e 40 44
e 40 46
e 40 47
e 40 48
e 40 49
e 40 52
e 40 54
e 40 57
e 40 61
e 40 62
e 40 64
e 40 65
e 40 66
e 40 68
e 40 70
e 41 43
e 41 45
e 41 50
e 41 51
e 41 53
e 41 55
e 41 56
e 41 59
e 41 60
e 41 64
e 41 65
e 41 66
e 41 67
e 41 68
e 41 69
e 41 72
e 41 73
e 41 74
e 41 75
e 42 43
e 42 46
e 42 47
e 42 49
e 42 50
e 42 51
e 42 52
e 42 53
e 42 55
e 42 59
e 42 60
e 42 61
e 42 62
e 42 70
e 42 72
e 42 73
e 42 74
e 43 45
e 43 46
e 43 49
e 43 50
e 43 52
e 43 53
e 43 54
e 43 55
e 43 56
e 43 57
e 43 58
e 43 62
e 43 63
e 43 64
e 43 67
e 43 68
e 43 69
e 43 70
e 43 71
e 43 72
e 43 73
e 43 74
e 44 45
e 44 46
e 44 50
e 44 51
e 44 54
e 44 55
e 44 56
e 44 59
e 44 64
e 44 65
e 44 67
e 44 69
e 44 71
e 45 47
e 45 50
e 45 51
e 45 54
e 45 55
e 45 56
e 45 58
e 45 59
e 45 61
e 45 62
e 45 63
e 45 66
e 45 71
e 45 74
e 46 47
e 46 48
e 46 50
e 46 52
e 46 53
e 46 54
e 46 56
e 46 58
e 46 64
e 46 65
e 46 66
e 46 69
e 46 70
e 46 74
e 46 75
e 47 49
e 47 50
e 47 51
e 47 52
e 47 54
e 47 55
e 47 57
e 47 59
e 47 60
e 47 61
e 47 66
e 47 67
e 47 70
e 47 72
e 47 73
e 48 49
e 48 53
e 48 54
e 48 55
e 48 56
e 48 59
e 48 63
e 48 67
e 48 69
e 48 72
e 48 73
e 48 75
e 49 52
e 49 54
e 49 57
e 49 61
e 49 62
e 49 63
e 49 67
e 49 69
e 49 74
e 49 75
e 50 52
e 50 56
e 50 57
e 50 67
e 50 68
e 50 69
e 50 73
e 50 75
e 51 52
e 51 56
e 51 57
e 51 58
e 51 59
e 51 60
e 51 62
e 51 63
e 51 65
e 51 66
e 51 67
e 51 71
e 51 72
e 51 74
e 51 75
e 52 53
e 52 54
e 52 55
e 52 57
e 52 59
e 52 60
e 52 61
e 52 62
e 52 64
e 52 67
e 52 68
e 52 72
e 52 73
e 52 74
e 52 75
e 53 54
e 53 56
e 53 57
e 53 59
e 53 60
e 53 62
e 53 64
e 53 65
e 53 66
e 53 71
e 53 73
e 53 75
e 54 56
e 54 59
e 54 60
e 54 62
e 54 65
e 54 66
e 54 67
e 54 70
e 54 73
e 54 74
e 55 58
e 55 59
e 55 61
e 55 66
e 55 68
e 55 69
e 55 71
e 55 73
e 55 75
e 56 57
e 56 58
e 56 60
e 56 61
e 56 62
e 56 66
e 56 70
e 56 72
e 56 74
e 57 60
e 57 61
e 57 64
e 57 66
e 57 70
e 57 73
e 57 74
e 57 75
e 58 60
e 58 61
e 58 63
e 58 64
e 58 65
e 58 66
e 58 70
e 58 72
e 58 75
e 59 60
e 59 61
e 59 65
e 59 67
e 59 68
e 59 72
e 59 73
e 59 74
e 59 75
e 60 62
e 60 65
e 60 66
e 60 67
e 60 68
e 60 69
e 60 70
e 60 71
e 60 73
e 60 74
e 60 75
e 61 65
e 61 66
e 61 67
e 61 68
e 61 71
e 61 73
e 61 74
e 61 75
e 62 63
e 62 65
e 62 66
e 62 70
e 62 72
e 62 73
e 63 66
e 63 70
e 63 71
e 63 72
e 64 74
e 64 75
e 65 68
e 65 69
e 65 71
e 65 73
e 65 74
e 65 75
e 66 67
e 66 68
e 66 70
e 66 71
e 66 74
e 66 75
e 67 70
e 67 73
e 68 71
e 68 73
e 68 74
e 69 70
e 69 72
e 69 73
e 69 74
e 70 73
e 70 75
e 71 72
e 71 74
